&projwfc
   outdir = '/wrk/kfg/julia_data/MgS/znse.in_vnscf_vol_2'
   prefix = 'qe.nscf'
   filpdos='t'
   lwrite_overlaps = .true.
   lbinary_data  = .false.
   pawproj = .false.
/

