&control
    calculation = 'nscf'
    restart_mode='from_scratch',
    prefix = 'qe.nscf'
    tstress = .true.
    tprnfor = .true.
    pseudo_dir = '/home/kfg/psuedo/gbrv_1.5/',
!    pseudo_dir = '/home/kevin/psuedo/gbrv_1.5/',
!    pseudo_dir = '/users/kfg/psuedo/gbrv_1.5/',
!    pseudo_dir = '/home/kevin/psp/'
    outdir = '/wrk/kfg/julia_data/MgS/dimer.in_vnscf_coords_4'
    disk_io = 'low'
    wf_collect = .true.
    verbosity = 'high'    
    nstep = 100
 /
&system
    ibrav = 0 
    nat=  2 
    ntyp= 2
    ecutwfc= 45,
    ecutrho= 250,
    q2sigma= 1
    ecfixed= 44.5,
    qcutz= 800
    occupations= "smearing",
    degauss= 0.01
    lda_plus_u= .false.
    force_symmorphic = true
    nbnd = 33

    nosym = true
    noinv = true
/
&electrons
    diagonalization='david'
    mixing_mode = 'local-TF'
    mixing_beta = 0.3
    conv_thr = 1d-9
 /
&ions
  ion_dynamics='bfgs',
/
&cell
 cell_dynamics = 'bfgs'
 cell_dofree = 'all'
 cell_factor = 1.0
/
ATOMIC_SPECIES
Mg  24.31  mg.pbesol.UPF  
S  32.06  s.pbesol.UPF  
ATOMIC_POSITIONS crystal
Mg   0.0000000000  0.0000000000 -0.0980546528
S   0.0000000000  0.0000000000  0.0980546528
CELL_PARAMETERS
  14.0000000000  0.0000000000  0.0000000000
  0.0000000000  14.0000000000  0.0000000000
  0.0000000000  0.0000000000  20.0000000000
K_POINTS automatic
  4  4  4 0 0 0
